50 8
606 399
908 69
23 416
382 451
574 419
873 703
815 310
253 807
809 423
584 714
758 674
837 272
817 608
654 465
87 595
612 498
762 268
767 834
154 422
590 357
438 751
582 157
832 570
698 412
276 568
822 76
820 323
762 85
532 158
556 371
646 567
654 425
380 793
699 207
857 680
914 672
600 865
121 554
572 873
648 93
572 271
573 537
628 331
755 858
298 526
754 561
668 358
899 739
902 126
693 526
